45
1000
199	2
198	3
197	3
196	1
195	2
194	2
193	3
192	2
191	2
190	2
189	2
188	1
187	3
186	2
185	2
184	2
183	1
182	2
181	2
180	2
179	3
178	1
176	2
175	1
174	1
172	3
171	1
169	4
168	1
166	2
165	4
164	1
163	3
162	1
161	2
160	4
159	1
157	2
156	3
155	3
154	1
153	2
152	5
151	4
150	4
